
  32    1
  10

   0   0   9 2 3 4 5 6 8 12 13 20 
   6   2   7 31 30 28 17 11 10 7 
   3   7   5 31 27 23 16 9 
   6   6   7 31 26 25 24 22 18 14 
  10   3   7 31 30 27 25 24 22 14 
   4  10   6 28 25 24 23 19 15 
   6   7   5 26 24 22 18 14 
   9   9   6 29 28 26 24 23 21 
   1   3   5 30 28 26 22 19 
   3   8   4 29 27 23 15 
   2   4   5 29 25 24 23 22 
   7   5   5 30 29 28 26 23 
   4   6   2 24 15 
   6   6   2 23 21 
   4   2   2 22 21 
   2   7   2 25 21 
   4   5   2 22 21 
   5   4   1 27 
   2   9   1 21 
   9   5   1 25 
   4   6   1 32
   5   4   1 32
   4   9   1 32
   2  10   1 32
   8   7   1 32
   4   7   1 32
   5   9   1 32
   4   6   1 32
   5   4   1 32
   6   4   1 32
   5   6   1 32
   0   0   0 
